c description: Graph pigeonhole principle formula on fast_gnp_random_graph(10,20,0.9)
c generator: CNFgen (0.9.0)
c copyright: (C) 2012-2020 Massimo Lauria <massimo.lauria@uniroma1.it>
c url: https://massimolauria.net/cnfgen
c
p cnf 182 754
1 2 3 4 5 6 7 8 9 10 11 12 13 14 15 16 17 18 19 0
20 21 22 23 24 25 26 27 28 29 30 31 32 33 34 35 0
36 37 38 39 40 41 42 43 44 45 46 47 48 49 50 51 52 53 54 0
55 56 57 58 59 60 61 62 63 64 65 66 67 68 69 70 71 72 0
73 74 75 76 77 78 79 80 81 82 83 84 85 86 87 88 89 0
90 91 92 93 94 95 96 97 98 99 100 101 102 103 104 105 106 107 108 109 0
110 111 112 113 114 115 116 117 118 119 120 121 122 123 124 125 126 0
127 128 129 130 131 132 133 134 135 136 137 138 139 140 141 142 143 144 145 0
146 147 148 149 150 151 152 153 154 155 156 157 158 159 160 161 162 163 164 0
165 166 167 168 169 170 171 172 173 174 175 176 177 178 179 180 181 182 0
-1 -20 0
-1 -36 0
-1 -55 0
-1 -73 0
-1 -90 0
-1 -127 0
-1 -146 0
-1 -165 0
-20 -36 0
-20 -55 0
-20 -73 0
-20 -90 0
-20 -127 0
-20 -146 0
-20 -165 0
-36 -55 0
-36 -73 0
-36 -90 0
-36 -127 0
-36 -146 0
-36 -165 0
-55 -73 0
-55 -90 0
-55 -127 0
-55 -146 0
-55 -165 0
-73 -90 0
-73 -127 0
-73 -146 0
-73 -165 0
-90 -127 0
-90 -146 0
-90 -165 0
-127 -146 0
-127 -165 0
-146 -165 0
-2 -21 0
-2 -37 0
-2 -56 0
-2 -74 0
-2 -91 0
-2 -110 0
-2 -128 0
-2 -147 0
-2 -166 0
-21 -37 0
-21 -56 0
-21 -74 0
-21 -91 0
-21 -110 0
-21 -128 0
-21 -147 0
-21 -166 0
-37 -56 0
-37 -74 0
-37 -91 0
-37 -110 0
-37 -128 0
-37 -147 0
-37 -166 0
-56 -74 0
-56 -91 0
-56 -110 0
-56 -128 0
-56 -147 0
-56 -166 0
-74 -91 0
-74 -110 0
-74 -128 0
-74 -147 0
-74 -166 0
-91 -110 0
-91 -128 0
-91 -147 0
-91 -166 0
-110 -128 0
-110 -147 0
-110 -166 0
-128 -147 0
-128 -166 0
-147 -166 0
-3 -22 0
-3 -38 0
-3 -57 0
-3 -75 0
-3 -92 0
-3 -111 0
-3 -129 0
-3 -148 0
-3 -167 0
-22 -38 0
-22 -57 0
-22 -75 0
-22 -92 0
-22 -111 0
-22 -129 0
-22 -148 0
-22 -167 0
-38 -57 0
-38 -75 0
-38 -92 0
-38 -111 0
-38 -129 0
-38 -148 0
-38 -167 0
-57 -75 0
-57 -92 0
-57 -111 0
-57 -129 0
-57 -148 0
-57 -167 0
-75 -92 0
-75 -111 0
-75 -129 0
-75 -148 0
-75 -167 0
-92 -111 0
-92 -129 0
-92 -148 0
-92 -167 0
-111 -129 0
-111 -148 0
-111 -167 0
-129 -148 0
-129 -167 0
-148 -167 0
-4 -23 0
-4 -39 0
-4 -58 0
-4 -76 0
-4 -93 0
-4 -112 0
-4 -130 0
-4 -149 0
-23 -39 0
-23 -58 0
-23 -76 0
-23 -93 0
-23 -112 0
-23 -130 0
-23 -149 0
-39 -58 0
-39 -76 0
-39 -93 0
-39 -112 0
-39 -130 0
-39 -149 0
-58 -76 0
-58 -93 0
-58 -112 0
-58 -130 0
-58 -149 0
-76 -93 0
-76 -112 0
-76 -130 0
-76 -149 0
-93 -112 0
-93 -130 0
-93 -149 0
-112 -130 0
-112 -149 0
-130 -149 0
-5 -24 0
-5 -40 0
-5 -59 0
-5 -77 0
-5 -94 0
-5 -131 0
-5 -150 0
-5 -168 0
-24 -40 0
-24 -59 0
-24 -77 0
-24 -94 0
-24 -131 0
-24 -150 0
-24 -168 0
-40 -59 0
-40 -77 0
-40 -94 0
-40 -131 0
-40 -150 0
-40 -168 0
-59 -77 0
-59 -94 0
-59 -131 0
-59 -150 0
-59 -168 0
-77 -94 0
-77 -131 0
-77 -150 0
-77 -168 0
-94 -131 0
-94 -150 0
-94 -168 0
-131 -150 0
-131 -168 0
-150 -168 0
-6 -25 0
-6 -60 0
-6 -95 0
-6 -132 0
-6 -151 0
-6 -169 0
-25 -60 0
-25 -95 0
-25 -132 0
-25 -151 0
-25 -169 0
-60 -95 0
-60 -132 0
-60 -151 0
-60 -169 0
-95 -132 0
-95 -151 0
-95 -169 0
-132 -151 0
-132 -169 0
-151 -169 0
-7 -41 0
-7 -61 0
-7 -78 0
-7 -96 0
-7 -113 0
-7 -133 0
-7 -152 0
-7 -170 0
-41 -61 0
-41 -78 0
-41 -96 0
-41 -113 0
-41 -133 0
-41 -152 0
-41 -170 0
-61 -78 0
-61 -96 0
-61 -113 0
-61 -133 0
-61 -152 0
-61 -170 0
-78 -96 0
-78 -113 0
-78 -133 0
-78 -152 0
-78 -170 0
-96 -113 0
-96 -133 0
-96 -152 0
-96 -170 0
-113 -133 0
-113 -152 0
-113 -170 0
-133 -152 0
-133 -170 0
-152 -170 0
-8 -26 0
-8 -42 0
-8 -79 0
-8 -97 0
-8 -114 0
-8 -134 0
-8 -153 0
-8 -171 0
-26 -42 0
-26 -79 0
-26 -97 0
-26 -114 0
-26 -134 0
-26 -153 0
-26 -171 0
-42 -79 0
-42 -97 0
-42 -114 0
-42 -134 0
-42 -153 0
-42 -171 0
-79 -97 0
-79 -114 0
-79 -134 0
-79 -153 0
-79 -171 0
-97 -114 0
-97 -134 0
-97 -153 0
-97 -171 0
-114 -134 0
-114 -153 0
-114 -171 0
-134 -153 0
-134 -171 0
-153 -171 0
-9 -27 0
-9 -43 0
-9 -62 0
-9 -80 0
-9 -98 0
-9 -115 0
-9 -135 0
-9 -154 0
-9 -172 0
-27 -43 0
-27 -62 0
-27 -80 0
-27 -98 0
-27 -115 0
-27 -135 0
-27 -154 0
-27 -172 0
-43 -62 0
-43 -80 0
-43 -98 0
-43 -115 0
-43 -135 0
-43 -154 0
-43 -172 0
-62 -80 0
-62 -98 0
-62 -115 0
-62 -135 0
-62 -154 0
-62 -172 0
-80 -98 0
-80 -115 0
-80 -135 0
-80 -154 0
-80 -172 0
-98 -115 0
-98 -135 0
-98 -154 0
-98 -172 0
-115 -135 0
-115 -154 0
-115 -172 0
-135 -154 0
-135 -172 0
-154 -172 0
-10 -28 0
-10 -44 0
-10 -63 0
-10 -81 0
-10 -99 0
-10 -116 0
-10 -136 0
-10 -155 0
-10 -173 0
-28 -44 0
-28 -63 0
-28 -81 0
-28 -99 0
-28 -116 0
-28 -136 0
-28 -155 0
-28 -173 0
-44 -63 0
-44 -81 0
-44 -99 0
-44 -116 0
-44 -136 0
-44 -155 0
-44 -173 0
-63 -81 0
-63 -99 0
-63 -116 0
-63 -136 0
-63 -155 0
-63 -173 0
-81 -99 0
-81 -116 0
-81 -136 0
-81 -155 0
-81 -173 0
-99 -116 0
-99 -136 0
-99 -155 0
-99 -173 0
-116 -136 0
-116 -155 0
-116 -173 0
-136 -155 0
-136 -173 0
-155 -173 0
-11 -45 0
-11 -64 0
-11 -82 0
-11 -100 0
-11 -117 0
-11 -137 0
-11 -156 0
-11 -174 0
-45 -64 0
-45 -82 0
-45 -100 0
-45 -117 0
-45 -137 0
-45 -156 0
-45 -174 0
-64 -82 0
-64 -100 0
-64 -117 0
-64 -137 0
-64 -156 0
-64 -174 0
-82 -100 0
-82 -117 0
-82 -137 0
-82 -156 0
-82 -174 0
-100 -117 0
-100 -137 0
-100 -156 0
-100 -174 0
-117 -137 0
-117 -156 0
-117 -174 0
-137 -156 0
-137 -174 0
-156 -174 0
-12 -29 0
-12 -46 0
-12 -65 0
-12 -83 0
-12 -101 0
-12 -118 0
-12 -138 0
-12 -157 0
-12 -175 0
-29 -46 0
-29 -65 0
-29 -83 0
-29 -101 0
-29 -118 0
-29 -138 0
-29 -157 0
-29 -175 0
-46 -65 0
-46 -83 0
-46 -101 0
-46 -118 0
-46 -138 0
-46 -157 0
-46 -175 0
-65 -83 0
-65 -101 0
-65 -118 0
-65 -138 0
-65 -157 0
-65 -175 0
-83 -101 0
-83 -118 0
-83 -138 0
-83 -157 0
-83 -175 0
-101 -118 0
-101 -138 0
-101 -157 0
-101 -175 0
-118 -138 0
-118 -157 0
-118 -175 0
-138 -157 0
-138 -175 0
-157 -175 0
-13 -30 0
-13 -47 0
-13 -66 0
-13 -84 0
-13 -102 0
-13 -119 0
-13 -139 0
-13 -158 0
-13 -176 0
-30 -47 0
-30 -66 0
-30 -84 0
-30 -102 0
-30 -119 0
-30 -139 0
-30 -158 0
-30 -176 0
-47 -66 0
-47 -84 0
-47 -102 0
-47 -119 0
-47 -139 0
-47 -158 0
-47 -176 0
-66 -84 0
-66 -102 0
-66 -119 0
-66 -139 0
-66 -158 0
-66 -176 0
-84 -102 0
-84 -119 0
-84 -139 0
-84 -158 0
-84 -176 0
-102 -119 0
-102 -139 0
-102 -158 0
-102 -176 0
-119 -139 0
-119 -158 0
-119 -176 0
-139 -158 0
-139 -176 0
-158 -176 0
-14 -48 0
-14 -67 0
-14 -85 0
-14 -103 0
-14 -120 0
-14 -140 0
-14 -177 0
-48 -67 0
-48 -85 0
-48 -103 0
-48 -120 0
-48 -140 0
-48 -177 0
-67 -85 0
-67 -103 0
-67 -120 0
-67 -140 0
-67 -177 0
-85 -103 0
-85 -120 0
-85 -140 0
-85 -177 0
-103 -120 0
-103 -140 0
-103 -177 0
-120 -140 0
-120 -177 0
-140 -177 0
-15 -31 0
-15 -49 0
-15 -68 0
-15 -86 0
-15 -104 0
-15 -121 0
-15 -141 0
-15 -159 0
-15 -178 0
-31 -49 0
-31 -68 0
-31 -86 0
-31 -104 0
-31 -121 0
-31 -141 0
-31 -159 0
-31 -178 0
-49 -68 0
-49 -86 0
-49 -104 0
-49 -121 0
-49 -141 0
-49 -159 0
-49 -178 0
-68 -86 0
-68 -104 0
-68 -121 0
-68 -141 0
-68 -159 0
-68 -178 0
-86 -104 0
-86 -121 0
-86 -141 0
-86 -159 0
-86 -178 0
-104 -121 0
-104 -141 0
-104 -159 0
-104 -178 0
-121 -141 0
-121 -159 0
-121 -178 0
-141 -159 0
-141 -178 0
-159 -178 0
-16 -32 0
-16 -50 0
-16 -69 0
-16 -87 0
-16 -105 0
-16 -122 0
-16 -160 0
-16 -179 0
-32 -50 0
-32 -69 0
-32 -87 0
-32 -105 0
-32 -122 0
-32 -160 0
-32 -179 0
-50 -69 0
-50 -87 0
-50 -105 0
-50 -122 0
-50 -160 0
-50 -179 0
-69 -87 0
-69 -105 0
-69 -122 0
-69 -160 0
-69 -179 0
-87 -105 0
-87 -122 0
-87 -160 0
-87 -179 0
-105 -122 0
-105 -160 0
-105 -179 0
-122 -160 0
-122 -179 0
-160 -179 0
-33 -51 0
-33 -70 0
-33 -88 0
-33 -106 0
-33 -123 0
-33 -142 0
-33 -161 0
-33 -180 0
-51 -70 0
-51 -88 0
-51 -106 0
-51 -123 0
-51 -142 0
-51 -161 0
-51 -180 0
-70 -88 0
-70 -106 0
-70 -123 0
-70 -142 0
-70 -161 0
-70 -180 0
-88 -106 0
-88 -123 0
-88 -142 0
-88 -161 0
-88 -180 0
-106 -123 0
-106 -142 0
-106 -161 0
-106 -180 0
-123 -142 0
-123 -161 0
-123 -180 0
-142 -161 0
-142 -180 0
-161 -180 0
-17 -34 0
-17 -52 0
-17 -71 0
-17 -107 0
-17 -124 0
-17 -143 0
-17 -162 0
-17 -181 0
-34 -52 0
-34 -71 0
-34 -107 0
-34 -124 0
-34 -143 0
-34 -162 0
-34 -181 0
-52 -71 0
-52 -107 0
-52 -124 0
-52 -143 0
-52 -162 0
-52 -181 0
-71 -107 0
-71 -124 0
-71 -143 0
-71 -162 0
-71 -181 0
-107 -124 0
-107 -143 0
-107 -162 0
-107 -181 0
-124 -143 0
-124 -162 0
-124 -181 0
-143 -162 0
-143 -181 0
-162 -181 0
-18 -53 0
-18 -89 0
-18 -108 0
-18 -125 0
-18 -144 0
-18 -163 0
-18 -182 0
-53 -89 0
-53 -108 0
-53 -125 0
-53 -144 0
-53 -163 0
-53 -182 0
-89 -108 0
-89 -125 0
-89 -144 0
-89 -163 0
-89 -182 0
-108 -125 0
-108 -144 0
-108 -163 0
-108 -182 0
-125 -144 0
-125 -163 0
-125 -182 0
-144 -163 0
-144 -182 0
-163 -182 0
-19 -35 0
-19 -54 0
-19 -72 0
-19 -109 0
-19 -126 0
-19 -145 0
-19 -164 0
-35 -54 0
-35 -72 0
-35 -109 0
-35 -126 0
-35 -145 0
-35 -164 0
-54 -72 0
-54 -109 0
-54 -126 0
-54 -145 0
-54 -164 0
-72 -109 0
-72 -126 0
-72 -145 0
-72 -164 0
-109 -126 0
-109 -145 0
-109 -164 0
-126 -145 0
-126 -164 0
-145 -164 0